17-36-35-34-37-38-33-31-32-27-28-25-26-42-41-53-52-51-54-55-56-57-58-59-39-40-60-61-62-63-72-71-70-64-65-50-48-49-66-69-67-68-46-47-43-44-45-23-21-22-0-75-74-1-2-3-20-24-29-30-18-19-4-5-6-7-73-13-12-11-8-9-10-14-15-16 113810

36-35-37-38-39-33-34-18-30-29-28-25-26-27-31-32-42-41-53-52-51-54-55-56-57-58-59-40-60-61-62-63-72-71-70-64-65-50-48-49-66-69-67-68-46-47-43-44-45-23-24-20-21-22-0-75-74-1-2-3-19-4-5-6-7-8-9-11-12-13-73-14-15-10-16-17 110395